Minimize
 +  11 x1 +  14 x2 +  13 x3 +  13 x4 +  3 x5 +  11 x6 +  10 x7 +  17 x8 +  13 x9 +  15 x10 +  5 x11 +  19 x12 +  19 x13 +  14 x14 +  12 x15 +  4 x16 +  7 x17 +  18 x18 +  9 x19 +  16 x20 +  17 x21 +  11 x22 +  18 x23 +  12 x24 +  19 x25 +  5 x26 +  18 x27 +  9 x28 +  2 x29 +  10 x30 +  x31 +  16 x32 +  12 x33 +  17 x34 +  16 x35 +  12 x36 +  6 x37 +  6 x38 +  10 x39 +  5 x40 +  9 x41 +  10 x42 +  18 x43 +  15 x44 +  17 x45 +  7 x46 +  7 x47 +  10 x48 +  5 x49 +  14 x50 +  17 x51 +  15 x52 +  19 x53 +  5 x54 +  18 x55 +  10 x56 +  3 x57 +  15 x58 +  13 x59 +  13 x60 +  16 x61 +  11 x62 +  11 x63 +  10 x64 +  13 x65 +  3 x66 +  15 x67 +  11 x68 +  12 x69 +  x70 +  3 x71 +  2 x72 +  2 x73 +  3 x74 +  10 x75 +  13 x76 +  17 x77 +  16 x78 +  6 x79 +  19 x80 +  9 x81 +  13 x82 +  14 x83 +  9 x84 +  2 x85 +  16 x86 +  19 x87 +  10 x88 +  18 x89 +  3 x90 +  5 x91 +  8 x92 +  11 x93 +  19 x94 +  6 x95 +  14 x96 +  6 x97 +  18 x98 +  11 x99 +  7 x100 +  14 x101 +  14 x102 +  8 x103 +  18 x104 +  15 x105 +  16 x106 +  4 x107 +  6 x108 +  19 x109 +  x110 +  17 x111 +  6 x112 +  4 x113 +  14 x114 +  17 x115 +  17 x116 +  8 x117 +  2 x118 +  12 x119 +  13 x120 +  14 x121 +  6 x122 +  4 x123 +  x124 +  4 x125 +  x126 +  10 x127 +  19 x128 +  14 x129 +  2 x130 +  15 x131 +  4 x132 +  2 x133 +  x134 +  4 x135 +  9 x136 +  8 x137 +  5 x138 +  10 x139 +  18 x140 +  3 x141 +  5 x142 +  5 x143 +  4 x144 +  2 x145 +  15 x146 +  15 x147 +  14 x148 +  10 x149 +  x150 +  9 x151 +  14 x152 +  x153 +  10 x154 +  3 x155 +  17 x156 +  8 x157 +  18 x158 +  12 x159 +  15 x160 +  8 x161 +  15 x162 +  14 x163 +  x164 +  4 x165 +  18 x166 +  6 x167 +  11 x168 +  4 x169 +  14 x170 +  6 x171 +  5 x172 +  14 x173 +  9 x174 +  5 x175 +  13 x176 +  7 x177 +  19 x178 +  16 x179 +  15 x180 +  6 x181 +  10 x182 +  5 x183 +  15 x184 +  8 x185 +  7 x186 +  8 x187 +  18 x188 +  12 x189 +  12 x190 +  13 x191 +  3 x192 +  14 x193 +  5 x194 +  15 x195 +  6 x196 +  18 x197 +  10 x198 +  18 x199 +  5 x200 +  11 x201 +  16 x202 +  x203 +  13 x204 +  13 x205 +  13 x206 +  18 x207 +  18 x208 +  15 x209 +  4 x210 +  18 x211 +  18 x212 +  14 x213 +  16 x214 +  2 x215 +  19 x216 +  5 x217 +  9 x218 +  15 x219 +  12 x220 +  16 x221 +  17 x222 +  18 x223 +  9 x224 +  9 x225 +  12 x226 +  x227 +  8 x228 +  19 x229 +  11 x230 +  14 x231 +  7 x232 +  19 x233 +  17 x234 +  10 x235 +  15 x236 +  3 x237 +  19 x238 +  x239 +  8 x240 +  13 x241 +  3 x242 +  13 x243 +  15 x244 +  x245 +  9 x246 +  10 x247 +  12 x248 +  4 x249 +  12 x250 +  10 x251 +  8 x252 +  16 x253 +  4 x254 +  6 x255 +  7 x256 +  6 x257 +  14 x258 +  3 x259 +  15 x260 +  16 x261 +  5 x262 +  19 x263 +  3 x264 +  15 x265 +  5 x266 +  17 x267 +  13 x268 +  6 x269 +  11 x270 +  17 x271 +  13 x272 +  14 x273 +  10 x274 +  17 x275 +  10 x276 +  6 x277 +  x278 +  8 x279 +  x280 +  19 x281 +  9 x282 +  8 x283 +  18 x284 +  3 x285 +  16 x286 +  13 x287 +  3 x288 +  5 x289 +  12 x290 +  11 x291 +  3 x292 +  12 x293 +  5 x294 +  16 x295 +  15 x296 +  3 x297 +  18 x298 +  17 x299 +  16 x300 +  15 x301 +  10 x302 +  8 x303 +  9 x304 +  4 x305 +  16 x306 +  2 x307 +  2 x308 +  x309 +  19 x310 +  19 x311 +  10 x312 +  13 x313 +  18 x314 +  13 x315 +  12 x316 +  17 x317 +  4 x318 +  9 x319 +  14 x320 +  18 x321 +  x322 +  3 x323 +  14 x324 +  15 x325 +  11 x326 +  17 x327 +  x328 +  6 x329 +  6 x330 +  8 x331 +  2 x332 +  15 x333 +  11 x334 +  18 x335 +  18 x336 +  18 x337 +  7 x338 +  4 x339 +  11 x340 +  19 x341 +  7 x342 +  19 x343 +  12 x344 +  16 x345 +  10 x346 +  14 x347 +  19 x348 +  17 x349 +  19 x350 +  15 x351 +  19 x352 +  5 x353 +  8 x354 +  6 x355 +  10 x356 +  18 x357 +  18 x358 +  8 x359 +  15 x360 +  13 x361 +  16 x362 +  4 x363 +  19 x364 +  7 x365 +  19 x366 +  19 x367 +  17 x368 +  13 x369 +  10 x370 +  12 x371 +  14 x372 +  7 x373 +  16 x374 +  17 x375 +  11 x376 +  17 x377 +  7 x378 +  17 x379 +  5 x380 +  12 x381 +  2 x382 +  18 x383 +  14 x384 +  3 x385 +  18 x386 +  8 x387 +  4 x388 +  3 x389 +  11 x390 +  17 x391 +  6 x392 +  7 x393 +  14 x394 +  7 x395 +  17 x396 +  19 x397 +  5 x398 +  5 x399 +  4 x400
Subject To
 +  x1 +  x21 +  x41 +  x61 +  x81 +  x101 +  x121 +  x141 +  x161 +  x181 +  x201 +  x221 +  x241 +  x261 +  x281 +  x301 +  x321 +  x341 +  x361 +  x381 = 1
 +  x2 +  x22 +  x42 +  x62 +  x82 +  x102 +  x122 +  x142 +  x162 +  x182 +  x202 +  x222 +  x242 +  x262 +  x282 +  x302 +  x322 +  x342 +  x362 +  x382 = 1
 +  x3 +  x23 +  x43 +  x63 +  x83 +  x103 +  x123 +  x143 +  x163 +  x183 +  x203 +  x223 +  x243 +  x263 +  x283 +  x303 +  x323 +  x343 +  x363 +  x383 = 1
 +  x4 +  x24 +  x44 +  x64 +  x84 +  x104 +  x124 +  x144 +  x164 +  x184 +  x204 +  x224 +  x244 +  x264 +  x284 +  x304 +  x324 +  x344 +  x364 +  x384 = 1
 +  x5 +  x25 +  x45 +  x65 +  x85 +  x105 +  x125 +  x145 +  x165 +  x185 +  x205 +  x225 +  x245 +  x265 +  x285 +  x305 +  x325 +  x345 +  x365 +  x385 = 1
 +  x6 +  x26 +  x46 +  x66 +  x86 +  x106 +  x126 +  x146 +  x166 +  x186 +  x206 +  x226 +  x246 +  x266 +  x286 +  x306 +  x326 +  x346 +  x366 +  x386 = 1
 +  x7 +  x27 +  x47 +  x67 +  x87 +  x107 +  x127 +  x147 +  x167 +  x187 +  x207 +  x227 +  x247 +  x267 +  x287 +  x307 +  x327 +  x347 +  x367 +  x387 = 1
 +  x8 +  x28 +  x48 +  x68 +  x88 +  x108 +  x128 +  x148 +  x168 +  x188 +  x208 +  x228 +  x248 +  x268 +  x288 +  x308 +  x328 +  x348 +  x368 +  x388 = 1
 +  x9 +  x29 +  x49 +  x69 +  x89 +  x109 +  x129 +  x149 +  x169 +  x189 +  x209 +  x229 +  x249 +  x269 +  x289 +  x309 +  x329 +  x349 +  x369 +  x389 = 1
 +  x10 +  x30 +  x50 +  x70 +  x90 +  x110 +  x130 +  x150 +  x170 +  x190 +  x210 +  x230 +  x250 +  x270 +  x290 +  x310 +  x330 +  x350 +  x370 +  x390 = 1
 +  x11 +  x31 +  x51 +  x71 +  x91 +  x111 +  x131 +  x151 +  x171 +  x191 +  x211 +  x231 +  x251 +  x271 +  x291 +  x311 +  x331 +  x351 +  x371 +  x391 = 1
 +  x12 +  x32 +  x52 +  x72 +  x92 +  x112 +  x132 +  x152 +  x172 +  x192 +  x212 +  x232 +  x252 +  x272 +  x292 +  x312 +  x332 +  x352 +  x372 +  x392 = 1
 +  x13 +  x33 +  x53 +  x73 +  x93 +  x113 +  x133 +  x153 +  x173 +  x193 +  x213 +  x233 +  x253 +  x273 +  x293 +  x313 +  x333 +  x353 +  x373 +  x393 = 1
 +  x14 +  x34 +  x54 +  x74 +  x94 +  x114 +  x134 +  x154 +  x174 +  x194 +  x214 +  x234 +  x254 +  x274 +  x294 +  x314 +  x334 +  x354 +  x374 +  x394 = 1
 +  x15 +  x35 +  x55 +  x75 +  x95 +  x115 +  x135 +  x155 +  x175 +  x195 +  x215 +  x235 +  x255 +  x275 +  x295 +  x315 +  x335 +  x355 +  x375 +  x395 = 1
 +  x16 +  x36 +  x56 +  x76 +  x96 +  x116 +  x136 +  x156 +  x176 +  x196 +  x216 +  x236 +  x256 +  x276 +  x296 +  x316 +  x336 +  x356 +  x376 +  x396 = 1
 +  x17 +  x37 +  x57 +  x77 +  x97 +  x117 +  x137 +  x157 +  x177 +  x197 +  x217 +  x237 +  x257 +  x277 +  x297 +  x317 +  x337 +  x357 +  x377 +  x397 = 1
 +  x18 +  x38 +  x58 +  x78 +  x98 +  x118 +  x138 +  x158 +  x178 +  x198 +  x218 +  x238 +  x258 +  x278 +  x298 +  x318 +  x338 +  x358 +  x378 +  x398 = 1
 +  x19 +  x39 +  x59 +  x79 +  x99 +  x119 +  x139 +  x159 +  x179 +  x199 +  x219 +  x239 +  x259 +  x279 +  x299 +  x319 +  x339 +  x359 +  x379 +  x399 = 1
 +  x20 +  x40 +  x60 +  x80 +  x100 +  x120 +  x140 +  x160 +  x180 +  x200 +  x220 +  x240 +  x260 +  x280 +  x300 +  x320 +  x340 +  x360 +  x380 +  x400 = 1
 +  x1 +  x2 +  x3 +  x4 +  x5 +  x6 +  x7 +  x8 +  x9 +  x10 +  x11 +  x12 +  x13 +  x14 +  x15 +  x16 +  x17 +  x18 +  x19 +  x20 = 1
 +  x21 +  x22 +  x23 +  x24 +  x25 +  x26 +  x27 +  x28 +  x29 +  x30 +  x31 +  x32 +  x33 +  x34 +  x35 +  x36 +  x37 +  x38 +  x39 +  x40 = 1
 +  x41 +  x42 +  x43 +  x44 +  x45 +  x46 +  x47 +  x48 +  x49 +  x50 +  x51 +  x52 +  x53 +  x54 +  x55 +  x56 +  x57 +  x58 +  x59 +  x60 = 1
 +  x61 +  x62 +  x63 +  x64 +  x65 +  x66 +  x67 +  x68 +  x69 +  x70 +  x71 +  x72 +  x73 +  x74 +  x75 +  x76 +  x77 +  x78 +  x79 +  x80 = 1
 +  x81 +  x82 +  x83 +  x84 +  x85 +  x86 +  x87 +  x88 +  x89 +  x90 +  x91 +  x92 +  x93 +  x94 +  x95 +  x96 +  x97 +  x98 +  x99 +  x100 = 1
 +  x101 +  x102 +  x103 +  x104 +  x105 +  x106 +  x107 +  x108 +  x109 +  x110 +  x111 +  x112 +  x113 +  x114 +  x115 +  x116 +  x117 +  x118 +  x119 +  x120 = 1
 +  x121 +  x122 +  x123 +  x124 +  x125 +  x126 +  x127 +  x128 +  x129 +  x130 +  x131 +  x132 +  x133 +  x134 +  x135 +  x136 +  x137 +  x138 +  x139 +  x140 = 1
 +  x141 +  x142 +  x143 +  x144 +  x145 +  x146 +  x147 +  x148 +  x149 +  x150 +  x151 +  x152 +  x153 +  x154 +  x155 +  x156 +  x157 +  x158 +  x159 +  x160 = 1
 +  x161 +  x162 +  x163 +  x164 +  x165 +  x166 +  x167 +  x168 +  x169 +  x170 +  x171 +  x172 +  x173 +  x174 +  x175 +  x176 +  x177 +  x178 +  x179 +  x180 = 1
 +  x181 +  x182 +  x183 +  x184 +  x185 +  x186 +  x187 +  x188 +  x189 +  x190 +  x191 +  x192 +  x193 +  x194 +  x195 +  x196 +  x197 +  x198 +  x199 +  x200 = 1
 +  x201 +  x202 +  x203 +  x204 +  x205 +  x206 +  x207 +  x208 +  x209 +  x210 +  x211 +  x212 +  x213 +  x214 +  x215 +  x216 +  x217 +  x218 +  x219 +  x220 = 1
 +  x221 +  x222 +  x223 +  x224 +  x225 +  x226 +  x227 +  x228 +  x229 +  x230 +  x231 +  x232 +  x233 +  x234 +  x235 +  x236 +  x237 +  x238 +  x239 +  x240 = 1
 +  x241 +  x242 +  x243 +  x244 +  x245 +  x246 +  x247 +  x248 +  x249 +  x250 +  x251 +  x252 +  x253 +  x254 +  x255 +  x256 +  x257 +  x258 +  x259 +  x260 = 1
 +  x261 +  x262 +  x263 +  x264 +  x265 +  x266 +  x267 +  x268 +  x269 +  x270 +  x271 +  x272 +  x273 +  x274 +  x275 +  x276 +  x277 +  x278 +  x279 +  x280 = 1
 +  x281 +  x282 +  x283 +  x284 +  x285 +  x286 +  x287 +  x288 +  x289 +  x290 +  x291 +  x292 +  x293 +  x294 +  x295 +  x296 +  x297 +  x298 +  x299 +  x300 = 1
 +  x301 +  x302 +  x303 +  x304 +  x305 +  x306 +  x307 +  x308 +  x309 +  x310 +  x311 +  x312 +  x313 +  x314 +  x315 +  x316 +  x317 +  x318 +  x319 +  x320 = 1
 +  x321 +  x322 +  x323 +  x324 +  x325 +  x326 +  x327 +  x328 +  x329 +  x330 +  x331 +  x332 +  x333 +  x334 +  x335 +  x336 +  x337 +  x338 +  x339 +  x340 = 1
 +  x341 +  x342 +  x343 +  x344 +  x345 +  x346 +  x347 +  x348 +  x349 +  x350 +  x351 +  x352 +  x353 +  x354 +  x355 +  x356 +  x357 +  x358 +  x359 +  x360 = 1
 +  x361 +  x362 +  x363 +  x364 +  x365 +  x366 +  x367 +  x368 +  x369 +  x370 +  x371 +  x372 +  x373 +  x374 +  x375 +  x376 +  x377 +  x378 +  x379 +  x380 = 1
 +  x381 +  x382 +  x383 +  x384 +  x385 +  x386 +  x387 +  x388 +  x389 +  x390 +  x391 +  x392 +  x393 +  x394 +  x395 +  x396 +  x397 +  x398 +  x399 +  x400 = 1
 -1 x2 -1 x21 >= -1
 -1 x3 -1 x22 -1 x41 >= -1
 -1 x4 -1 x23 -1 x42 -1 x61 >= -1
 -1 x5 -1 x24 -1 x43 -1 x62 -1 x81 >= -1
 -1 x6 -1 x25 -1 x44 -1 x63 -1 x82 -1 x101 >= -1
 -1 x7 -1 x26 -1 x45 -1 x64 -1 x83 -1 x102 -1 x121 >= -1
 -1 x8 -1 x27 -1 x46 -1 x65 -1 x84 -1 x103 -1 x122 -1 x141 >= -1
 -1 x9 -1 x28 -1 x47 -1 x66 -1 x85 -1 x104 -1 x123 -1 x142 -1 x161 >= -1
 -1 x10 -1 x29 -1 x48 -1 x67 -1 x86 -1 x105 -1 x124 -1 x143 -1 x162 -1 x181 >= -1
 -1 x11 -1 x30 -1 x49 -1 x68 -1 x87 -1 x106 -1 x125 -1 x144 -1 x163 -1 x182 -1 x201 >= -1
 -1 x12 -1 x31 -1 x50 -1 x69 -1 x88 -1 x107 -1 x126 -1 x145 -1 x164 -1 x183 -1 x202 -1 x221 >= -1
 -1 x13 -1 x32 -1 x51 -1 x70 -1 x89 -1 x108 -1 x127 -1 x146 -1 x165 -1 x184 -1 x203 -1 x222 -1 x241 >= -1
 -1 x14 -1 x33 -1 x52 -1 x71 -1 x90 -1 x109 -1 x128 -1 x147 -1 x166 -1 x185 -1 x204 -1 x223 -1 x242 -1 x261 >= -1
 -1 x15 -1 x34 -1 x53 -1 x72 -1 x91 -1 x110 -1 x129 -1 x148 -1 x167 -1 x186 -1 x205 -1 x224 -1 x243 -1 x262 -1 x281 >= -1
 -1 x16 -1 x35 -1 x54 -1 x73 -1 x92 -1 x111 -1 x130 -1 x149 -1 x168 -1 x187 -1 x206 -1 x225 -1 x244 -1 x263 -1 x282 -1 x301 >= -1
 -1 x17 -1 x36 -1 x55 -1 x74 -1 x93 -1 x112 -1 x131 -1 x150 -1 x169 -1 x188 -1 x207 -1 x226 -1 x245 -1 x264 -1 x283 -1 x302 -1 x321 >= -1
 -1 x18 -1 x37 -1 x56 -1 x75 -1 x94 -1 x113 -1 x132 -1 x151 -1 x170 -1 x189 -1 x208 -1 x227 -1 x246 -1 x265 -1 x284 -1 x303 -1 x322 -1 x341 >= -1
 -1 x19 -1 x38 -1 x57 -1 x76 -1 x95 -1 x114 -1 x133 -1 x152 -1 x171 -1 x190 -1 x209 -1 x228 -1 x247 -1 x266 -1 x285 -1 x304 -1 x323 -1 x342 -1 x361 >= -1
 -1 x20 -1 x39 -1 x58 -1 x77 -1 x96 -1 x115 -1 x134 -1 x153 -1 x172 -1 x191 -1 x210 -1 x229 -1 x248 -1 x267 -1 x286 -1 x305 -1 x324 -1 x343 -1 x362 -1 x381 >= -1
 -1 x40 -1 x59 -1 x78 -1 x97 -1 x116 -1 x135 -1 x154 -1 x173 -1 x192 -1 x211 -1 x230 -1 x249 -1 x268 -1 x287 -1 x306 -1 x325 -1 x344 -1 x363 -1 x382 >= -1
 -1 x60 -1 x79 -1 x98 -1 x117 -1 x136 -1 x155 -1 x174 -1 x193 -1 x212 -1 x231 -1 x250 -1 x269 -1 x288 -1 x307 -1 x326 -1 x345 -1 x364 -1 x383 >= -1
 -1 x80 -1 x99 -1 x118 -1 x137 -1 x156 -1 x175 -1 x194 -1 x213 -1 x232 -1 x251 -1 x270 -1 x289 -1 x308 -1 x327 -1 x346 -1 x365 -1 x384 >= -1
 -1 x100 -1 x119 -1 x138 -1 x157 -1 x176 -1 x195 -1 x214 -1 x233 -1 x252 -1 x271 -1 x290 -1 x309 -1 x328 -1 x347 -1 x366 -1 x385 >= -1
 -1 x120 -1 x139 -1 x158 -1 x177 -1 x196 -1 x215 -1 x234 -1 x253 -1 x272 -1 x291 -1 x310 -1 x329 -1 x348 -1 x367 -1 x386 >= -1
 -1 x140 -1 x159 -1 x178 -1 x197 -1 x216 -1 x235 -1 x254 -1 x273 -1 x292 -1 x311 -1 x330 -1 x349 -1 x368 -1 x387 >= -1
 -1 x160 -1 x179 -1 x198 -1 x217 -1 x236 -1 x255 -1 x274 -1 x293 -1 x312 -1 x331 -1 x350 -1 x369 -1 x388 >= -1
 -1 x180 -1 x199 -1 x218 -1 x237 -1 x256 -1 x275 -1 x294 -1 x313 -1 x332 -1 x351 -1 x370 -1 x389 >= -1
 -1 x200 -1 x219 -1 x238 -1 x257 -1 x276 -1 x295 -1 x314 -1 x333 -1 x352 -1 x371 -1 x390 >= -1
 -1 x220 -1 x239 -1 x258 -1 x277 -1 x296 -1 x315 -1 x334 -1 x353 -1 x372 -1 x391 >= -1
 -1 x240 -1 x259 -1 x278 -1 x297 -1 x316 -1 x335 -1 x354 -1 x373 -1 x392 >= -1
 -1 x260 -1 x279 -1 x298 -1 x317 -1 x336 -1 x355 -1 x374 -1 x393 >= -1
 -1 x280 -1 x299 -1 x318 -1 x337 -1 x356 -1 x375 -1 x394 >= -1
 -1 x300 -1 x319 -1 x338 -1 x357 -1 x376 -1 x395 >= -1
 -1 x320 -1 x339 -1 x358 -1 x377 -1 x396 >= -1
 -1 x340 -1 x359 -1 x378 -1 x397 >= -1
 -1 x360 -1 x379 -1 x398 >= -1
 -1 x380 -1 x399 >= -1
 -1 x19 -1 x40 >= -1
 -1 x18 -1 x39 -1 x60 >= -1
 -1 x17 -1 x38 -1 x59 -1 x80 >= -1
 -1 x16 -1 x37 -1 x58 -1 x79 -1 x100 >= -1
 -1 x15 -1 x36 -1 x57 -1 x78 -1 x99 -1 x120 >= -1
 -1 x14 -1 x35 -1 x56 -1 x77 -1 x98 -1 x119 -1 x140 >= -1
 -1 x13 -1 x34 -1 x55 -1 x76 -1 x97 -1 x118 -1 x139 -1 x160 >= -1
 -1 x12 -1 x33 -1 x54 -1 x75 -1 x96 -1 x117 -1 x138 -1 x159 -1 x180 >= -1
 -1 x11 -1 x32 -1 x53 -1 x74 -1 x95 -1 x116 -1 x137 -1 x158 -1 x179 -1 x200 >= -1
 -1 x10 -1 x31 -1 x52 -1 x73 -1 x94 -1 x115 -1 x136 -1 x157 -1 x178 -1 x199 -1 x220 >= -1
 -1 x9 -1 x30 -1 x51 -1 x72 -1 x93 -1 x114 -1 x135 -1 x156 -1 x177 -1 x198 -1 x219 -1 x240 >= -1
 -1 x8 -1 x29 -1 x50 -1 x71 -1 x92 -1 x113 -1 x134 -1 x155 -1 x176 -1 x197 -1 x218 -1 x239 -1 x260 >= -1
 -1 x7 -1 x28 -1 x49 -1 x70 -1 x91 -1 x112 -1 x133 -1 x154 -1 x175 -1 x196 -1 x217 -1 x238 -1 x259 -1 x280 >= -1
 -1 x6 -1 x27 -1 x48 -1 x69 -1 x90 -1 x111 -1 x132 -1 x153 -1 x174 -1 x195 -1 x216 -1 x237 -1 x258 -1 x279 -1 x300 >= -1
 -1 x5 -1 x26 -1 x47 -1 x68 -1 x89 -1 x110 -1 x131 -1 x152 -1 x173 -1 x194 -1 x215 -1 x236 -1 x257 -1 x278 -1 x299 -1 x320 >= -1
 -1 x4 -1 x25 -1 x46 -1 x67 -1 x88 -1 x109 -1 x130 -1 x151 -1 x172 -1 x193 -1 x214 -1 x235 -1 x256 -1 x277 -1 x298 -1 x319 -1 x340 >= -1
 -1 x3 -1 x24 -1 x45 -1 x66 -1 x87 -1 x108 -1 x129 -1 x150 -1 x171 -1 x192 -1 x213 -1 x234 -1 x255 -1 x276 -1 x297 -1 x318 -1 x339 -1 x360 >= -1
 -1 x2 -1 x23 -1 x44 -1 x65 -1 x86 -1 x107 -1 x128 -1 x149 -1 x170 -1 x191 -1 x212 -1 x233 -1 x254 -1 x275 -1 x296 -1 x317 -1 x338 -1 x359 -1 x380 >= -1
 -1 x1 -1 x22 -1 x43 -1 x64 -1 x85 -1 x106 -1 x127 -1 x148 -1 x169 -1 x190 -1 x211 -1 x232 -1 x253 -1 x274 -1 x295 -1 x316 -1 x337 -1 x358 -1 x379 -1 x400 >= -1
 -1 x21 -1 x42 -1 x63 -1 x84 -1 x105 -1 x126 -1 x147 -1 x168 -1 x189 -1 x210 -1 x231 -1 x252 -1 x273 -1 x294 -1 x315 -1 x336 -1 x357 -1 x378 -1 x399 >= -1
 -1 x41 -1 x62 -1 x83 -1 x104 -1 x125 -1 x146 -1 x167 -1 x188 -1 x209 -1 x230 -1 x251 -1 x272 -1 x293 -1 x314 -1 x335 -1 x356 -1 x377 -1 x398 >= -1
 -1 x61 -1 x82 -1 x103 -1 x124 -1 x145 -1 x166 -1 x187 -1 x208 -1 x229 -1 x250 -1 x271 -1 x292 -1 x313 -1 x334 -1 x355 -1 x376 -1 x397 >= -1
 -1 x81 -1 x102 -1 x123 -1 x144 -1 x165 -1 x186 -1 x207 -1 x228 -1 x249 -1 x270 -1 x291 -1 x312 -1 x333 -1 x354 -1 x375 -1 x396 >= -1
 -1 x101 -1 x122 -1 x143 -1 x164 -1 x185 -1 x206 -1 x227 -1 x248 -1 x269 -1 x290 -1 x311 -1 x332 -1 x353 -1 x374 -1 x395 >= -1
 -1 x121 -1 x142 -1 x163 -1 x184 -1 x205 -1 x226 -1 x247 -1 x268 -1 x289 -1 x310 -1 x331 -1 x352 -1 x373 -1 x394 >= -1
 -1 x141 -1 x162 -1 x183 -1 x204 -1 x225 -1 x246 -1 x267 -1 x288 -1 x309 -1 x330 -1 x351 -1 x372 -1 x393 >= -1
 -1 x161 -1 x182 -1 x203 -1 x224 -1 x245 -1 x266 -1 x287 -1 x308 -1 x329 -1 x350 -1 x371 -1 x392 >= -1
 -1 x181 -1 x202 -1 x223 -1 x244 -1 x265 -1 x286 -1 x307 -1 x328 -1 x349 -1 x370 -1 x391 >= -1
 -1 x201 -1 x222 -1 x243 -1 x264 -1 x285 -1 x306 -1 x327 -1 x348 -1 x369 -1 x390 >= -1
 -1 x221 -1 x242 -1 x263 -1 x284 -1 x305 -1 x326 -1 x347 -1 x368 -1 x389 >= -1
 -1 x241 -1 x262 -1 x283 -1 x304 -1 x325 -1 x346 -1 x367 -1 x388 >= -1
 -1 x261 -1 x282 -1 x303 -1 x324 -1 x345 -1 x366 -1 x387 >= -1
 -1 x281 -1 x302 -1 x323 -1 x344 -1 x365 -1 x386 >= -1
 -1 x301 -1 x322 -1 x343 -1 x364 -1 x385 >= -1
 -1 x321 -1 x342 -1 x363 -1 x384 >= -1
 -1 x341 -1 x362 -1 x383 >= -1
 -1 x361 -1 x382 >= -1
Binary
x242 x123 x4 x224 x105 x206 x141 x82 x329 x170 x390 x91 x251 x152 x307 x28 x215 x116 x37 x318 x19 x260 x233 x134 x400 x83 x243 x104 x5 x225 x306 x261 x122 x29 x90 x250 x171 x391 x232 x207 x328 x135 x36 x117 x18 x319 x140 x153 x214 x143 x204 x305 x6 x226 x107 x121 x262 x231 x172 x392 x93 x253 x114 x349 x150 x217 x338 x79 x80 x240 x35 x136 x142 x263 x304 x205 x106 x7 x81 x241 x230 x151 x92 x252 x173 x393 x227 x348 x216 x137 x78 x339 x120 x34 x115 x303 x264 x145 x86 x246 x127 x101 x202 x369 x130 x211 x112 x33 x174 x68 x189 x255 x156 x237 x358 x59 x299 x394 x95 x220 x302 x203 x144 x265 x126 x87 x1 x221 x368 x69 x210 x131 x32 x113 x247 x188 x175 x395 x236 x157 x58 x298 x94 x254 x359 x100 x222 x103 x84 x244 x125 x266 x301 x2 x288 x110 x31 x132 x213 x154 x147 x48 x396 x97 x257 x198 x378 x200 x235 x176 x3 x223 x124 x85 x245 x146 x201 x102 x289 x30 x111 x212 x133 x234 x267 x49 x256 x177 x397 x199 x379 x300 x155 x96 x64 x185 x365 x46 x286 x268 x321 x343 x11 x332 x73 x354 x55 x295 x149 x310 x178 x398 x99 x259 x20 x196 x376 x184 x364 x65 x47 x287 x148 x21 x342 x311 x72 x333 x54 x294 x355 x269 x10 x98 x258 x179 x399 x320 x197 x377 x323 x44 x284 x66 x187 x367 x341 x22 x129 x330 x71 x312 x13 x194 x88 x248 x57 x297 x158 x239 x374 x356 x45 x285 x186 x366 x67 x128 x322 x23 x70 x331 x12 x313 x195 x375 x89 x249 x357 x238 x159 x340 x56 x296 x42 x282 x24 x325 x347 x8 x181 x361 x350 x51 x291 x192 x372 x314 x228 x109 x77 x138 x219 x60 x15 x336 x283 x324 x25 x346 x108 x9 x61 x43 x290 x351 x193 x373 x14 x315 x229 x50 x218 x139 x180 x360 x76 x337 x363 x345 x26 x327 x208 x309 x62 x183 x352 x53 x293 x334 x75 x316 x190 x370 x39 x40 x280 x17 x118 x182 x362 x63 x344 x326 x27 x41 x281 x191 x371 x52 x292 x353 x74 x308 x209 x317 x38 x119 x335 x16 x279 x169 x389 x278 x168 x388 x277 x167 x387 x276 x166 x386 x275 x165 x385 x274 x164 x384 x273 x163 x383 x272 x162 x382 x271 x161 x381 x380 x270 x160 
